units        metal 
dimension    3 
boundary     p p p 
atom_style   atomic 
